Room 1
0   0   2   0   13   0   0   0   5   0   
1   0   0   0   0   0   0   0   0   0   
0   11   17   7   0   3   14   24   0   0   
0   0   22   0   8   18   19   4   0   0   
0   0   0   0   0   0   0   0   20   0   
Room 2
16   0   0   12   0   0   0   0   0   0   
0   0   0   0   0   0   9   0   0   0   
0   0   0   0   0   0   0   0   0   25   
0   21   0   0   0   0   0   0   0   10   
0   6   0   0   23   0   0   0   0   0   
Room 3
0   0   0   0   0   0   0   0   15   0   
0   0   0   0   0   0   0   0   0   0   
0   0   0   0   0   0   0   0   0   0   
0   0   0   0   0   0   0   0   0   0   
0   0   0   0   0   0   0   0   0   0   
Room 1
0   0   2   0   13   0   0   0   5   0   
1   0   0   0   0   0   0   0   0   0   
0   11   17   7   0   3   14   24   0   0   
0   0   22   0   8   18   19   4   0   0   
0   0   0   0   0   0   0   0   20   0   
Room 2
16   0   0   12   0   0   0   0   0   0   
0   0   0   0   0   0   9   0   0   0   
0   0   0   0   0   0   0   0   0   25   
0   21   0   0   0   0   0   0   0   10   
0   6   0   0   23   0   0   0   0   0   
Room 3
0   0   0   0   0   0   0   0   15   0   
0   0   0   0   0   0   0   0   0   0   
0   0   0   0   0   0   0   0   0   0   
0   0   0   0   0   0   0   0   0   0   
0   0   0   0   0   0   0   0   0   0   
Room 1
0   0   2   0   13   0   0   0   5   0   
1   0   0   0   0   0   0   0   0   0   
0   11   17   7   0   3   14   24   0   25   
0   0   0   0   8   18   19   4   0   0   
0   0   0   0   0   0   0   0   20   0   
Room 2
16   0   0   12   0   0   0   0   0   0   
0   0   0   0   0   0   9   0   0   0   
0   0   0   0   0   0   0   0   0   0   
0   21   0   0   0   0   0   0   0   10   
0   6   0   0   0   0   0   0   0   0   
Room 3
0   0   0   0   0   23   0   0   15   0   
22   0   0   0   0   0   0   0   0   0   
0   0   0   0   0   0   0   0   0   0   
0   0   0   0   0   0   0   0   0   0   
0   0   0   0   0   0   0   0   0   0   
Room 1
0   0   2   0   13   0   0   0   5   0   
1   0   0   0   0   0   0   0   0   0   
0   11   17   7   0   3   14   24   0   0   
0   0   0   0   8   18   19   4   0   0   
0   0   0   0   0   0   0   22   20   0   
Room 2
16   0   0   12   0   0   0   0   0   0   
0   0   0   0   0   0   9   0   0   0   
0   0   0   0   0   0   0   0   0   25   
0   21   0   0   0   0   0   0   0   10   
0   6   0   0   0   0   0   0   0   0   
Room 3
0   0   0   0   0   23   0   0   15   0   
0   0   0   0   0   0   0   0   0   0   
0   0   0   0   0   0   0   0   0   0   
0   0   0   0   0   0   0   0   0   0   
0   0   0   0   0   0   0   0   0   0   
Room 1
0   0   2   0   13   0   0   0   5   0   
1   0   0   0   0   0   0   0   0   0   
0   11   17   7   0   3   14   24   0   0   
0   0   0   0   8   18   19   4   0   0   
0   0   0   0   0   0   0   0   20   0   
Room 2
16   0   0   12   0   0   0   0   0   0   
0   0   0   0   0   0   9   0   0   0   
0   0   0   0   0   0   0   0   0   25   
0   21   0   0   0   0   0   0   0   10   
0   6   0   0   0   0   0   0   0   0   
Room 3
0   0   0   0   0   23   0   0   15   0   
22   0   0   0   0   0   0   0   0   0   
0   0   0   0   0   0   0   0   0   0   
0   0   0   0   0   0   0   0   0   0   
0   0   0   0   0   0   0   0   0   0   
Room 1
0   0   2   0   13   0   0   0   5   0   
1   0   0   0   0   0   0   0   0   0   
0   11   17   7   0   3   14   24   0   0   
0   0   0   0   8   18   19   4   0   0   
0   0   0   0   0   0   22   0   20   0   
Room 2
16   0   0   12   0   0   0   0   0   0   
0   0   0   0   0   0   9   0   0   0   
0   0   0   0   0   0   0   0   0   25   
0   21   0   0   0   0   0   0   0   10   
0   6   0   0   0   0   0   0   0   0   
Room 3
0   0   0   0   0   0   0   0   15   0   
0   0   0   0   0   23   0   0   0   0   
0   0   0   0   0   0   0   0   0   0   
0   0   0   0   0   0   0   0   0   0   
0   0   0   0   0   0   0   0   0   0   
Room 1
0   0   2   0   13   0   0   0   5   0   
1   0   0   0   0   0   0   0   0   0   
0   11   17   7   0   3   14   24   0   0   
0   0   0   0   8   18   19   4   0   0   
0   0   0   0   0   0   0   0   20   0   
Room 2
16   22   0   12   0   0   0   0   0   0   
0   0   0   0   0   0   9   0   0   0   
0   0   0   0   0   0   0   0   0   25   
0   21   0   0   0   0   0   0   0   10   
0   6   0   0   0   0   0   0   0   0   
Room 3
0   0   0   0   0   23   0   0   15   0   
0   0   0   0   0   0   0   0   0   0   
0   0   0   0   0   0   0   0   0   0   
0   0   0   0   0   0   0   0   0   0   
0   0   0   0   0   0   0   0   0   0   
Room 1
0   0   2   0   13   0   0   0   5   0   
1   0   0   0   0   0   0   0   0   0   
0   11   17   7   0   3   14   24   0   0   
0   0   0   0   8   18   19   4   0   0   
0   0   0   0   0   0   0   0   20   0   
Room 2
16   0   0   12   0   0   0   0   0   0   
0   0   0   0   0   0   9   0   0   0   
0   0   0   0   0   0   0   0   0   25   
0   21   0   0   0   0   0   0   0   10   
0   6   0   0   23   0   0   0   0   0   
Room 3
0   0   0   0   0   0   0   0   15   0   
22   0   0   0   0   0   0   0   0   0   
0   0   0   0   0   0   0   0   0   0   
0   0   0   0   0   0   0   0   0   0   
0   0   0   0   0   0   0   0   0   0   
Room 1
0   0   2   0   13   0   0   0   5   0   
1   0   0   0   0   0   0   0   0   0   
0   11   17   7   0   3   14   24   0   0   
0   0   0   0   8   18   19   4   0   0   
0   0   0   0   0   0   0   0   20   0   
Room 2
16   22   0   12   0   0   0   0   0   0   
0   0   0   0   0   0   9   0   0   0   
0   0   0   0   0   0   0   0   0   25   
0   21   0   0   0   0   0   0   0   10   
0   6   0   0   23   0   0   0   0   0   
Room 3
0   0   0   0   0   0   0   0   15   0   
0   0   0   0   0   0   0   0   0   0   
0   0   0   0   0   0   0   0   0   0   
0   0   0   0   0   0   0   0   0   0   
0   0   0   0   0   0   0   0   0   0   
Room 1
0   0   2   0   13   0   0   0   5   0   
1   0   0   0   0   0   0   0   0   0   
0   17   11   7   0   3   14   24   0   0   
0   0   0   0   8   18   19   4   0   0   
0   0   0   0   0   0   0   22   20   0   
Room 2
16   0   0   12   0   0   0   0   0   0   
0   0   0   0   0   0   9   0   0   0   
0   0   0   0   0   0   0   0   0   25   
0   21   0   0   0   0   0   0   0   10   
0   6   0   0   0   0   0   0   0   0   
Room 3
0   0   0   0   0   0   0   0   15   0   
0   0   0   0   0   23   0   0   0   0   
0   0   0   0   0   0   0   0   0   0   
0   0   0   0   0   0   0   0   0   0   
0   0   0   0   0   0   0   0   0   0   
Room 1
6   0   0   22   0   0   0   14   20   0   
21   0   0   0   8   23   0   0   0   0   
16   11   0   0   0   0   9   24   0   25   
0   0   12   17   0   0   0   0   0   10   
0   0   0   2   13   3   0   0   15   5   
Room 2
0   1   0   0   0   0   0   0   0   0   
0   0   0   0   0   0   19   4   0   0   
0   0   0   0   0   0   0   0   0   0   
0   0   0   0   0   0   0   0   0   0   
0   0   0   0   0   0   0   0   0   0   
Room 3
0   0   0   0   0   0   0   0   0   0   
0   0   7   0   0   0   0   0   0   0   
0   0   0   0   0   0   0   0   0   0   
0   0   0   0   0   18   0   0   0   0   
0   0   0   0   0   0   0   0   0   0   
Room 1
6   0   0   22   0   0   0   14   20   0   
21   0   0   0   8   23   0   0   0   0   
16   11   0   0   0   0   0   24   0   25   
0   0   12   17   0   0   0   0   0   10   
0   0   0   2   13   3   0   0   15   0   
Room 2
0   1   0   0   0   0   0   0   0   0   
0   0   0   0   0   0   19   4   0   0   
0   0   0   0   0   0   0   0   0   0   
0   0   0   0   0   0   0   0   0   0   
0   0   0   0   0   0   0   0   0   0   
Room 3
0   0   0   0   0   0   0   0   0   0   
0   0   7   0   0   0   9   0   0   0   
0   0   0   0   0   0   0   0   0   0   
0   0   0   0   0   18   0   0   0   5   
0   0   0   0   0   0   0   0   0   0   
Room 1
6   0   0   22   0   0   0   14   20   0   
21   0   0   0   8   23   0   0   0   0   
16   11   0   0   0   0   0   24   0   25   
0   0   12   17   0   0   0   0   0   10   
0   0   0   2   13   3   0   0   15   0   
Room 2
0   1   0   0   0   0   0   0   0   0   
0   0   0   0   0   0   19   4   0   0   
0   0   0   0   0   0   0   0   0   0   
0   0   0   0   0   0   0   0   0   0   
0   0   0   0   0   0   0   0   0   0   
Room 3
0   0   0   0   0   0   0   0   0   0   
0   0   7   0   0   0   9   0   0   0   
0   0   0   0   0   0   0   0   0   0   
0   0   0   0   0   18   0   0   0   5   
0   0   0   0   0   0   0   0   0   0   
Room 1
6   0   0   22   0   0   0   14   20   0   
21   0   0   0   8   23   0   0   0   0   
16   11   0   0   0   0   0   24   0   25   
0   0   12   17   0   0   0   0   0   10   
0   0   0   2   13   3   0   0   15   0   
Room 2
0   1   0   0   0   0   0   0   0   0   
0   0   0   0   0   0   19   4   0   0   
0   0   0   0   0   0   0   0   0   0   
0   0   0   0   0   0   0   0   0   0   
0   0   0   0   0   0   0   0   0   0   
Room 3
0   0   0   0   0   0   0   0   0   0   
0   0   7   0   0   0   9   0   0   0   
0   0   0   0   0   0   0   0   0   0   
0   0   0   0   0   18   0   0   0   5   
0   0   0   0   0   0   0   0   0   0   
Room 1
6   0   0   22   0   0   0   14   20   0   
21   0   0   0   8   23   0   0   0   0   
16   11   0   0   0   0   0   24   0   25   
0   0   12   17   0   0   0   0   0   10   
0   0   0   2   13   3   0   0   15   0   
Room 2
0   1   0   0   0   0   0   0   0   0   
0   0   0   0   0   0   19   4   0   0   
0   0   0   0   0   0   0   0   0   0   
0   0   0   0   0   0   0   0   0   0   
0   0   0   0   0   0   0   0   0   0   
Room 3
0   0   0   0   0   0   0   0   0   0   
0   0   7   0   0   0   9   0   0   0   
0   0   0   0   0   0   0   0   0   0   
0   0   0   0   0   18   0   0   0   5   
0   0   0   0   0   0   0   0   0   0   
Room 1
6   0   0   22   0   0   0   14   20   0   
21   0   0   0   8   23   0   0   0   0   
16   11   0   0   0   0   0   24   0   25   
0   0   12   17   0   0   0   0   0   10   
0   0   0   2   13   3   0   0   15   0   
Room 2
0   1   0   0   0   0   0   0   0   0   
0   0   0   0   0   0   19   4   0   0   
0   0   0   0   0   0   0   0   0   0   
0   0   0   0   0   0   0   0   0   0   
0   0   0   0   0   0   0   0   0   0   
Room 3
0   0   0   0   0   0   0   0   0   0   
0   0   7   0   0   0   9   0   0   0   
0   0   0   0   0   0   0   0   0   0   
0   0   0   0   0   18   0   0   0   5   
0   0   0   0   0   0   0   0   0   0   
Room 1
6   0   0   22   0   0   0   14   20   0   
21   0   0   0   8   23   0   0   0   0   
16   11   0   0   0   0   0   24   0   25   
0   0   12   17   0   0   0   0   0   10   
0   0   0   2   13   3   0   0   15   0   
Room 2
0   1   0   0   0   0   0   0   0   0   
0   0   0   0   0   0   19   4   0   0   
0   0   0   0   0   0   0   0   0   0   
0   0   0   0   0   0   0   0   0   0   
0   0   0   0   0   0   0   0   0   0   
Room 3
0   0   0   0   0   0   0   0   0   0   
0   0   7   0   0   0   9   0   0   0   
0   0   0   0   0   0   0   0   0   0   
0   0   0   0   0   18   0   0   0   5   
0   0   0   0   0   0   0   0   0   0   
Room 1
6   0   0   22   0   0   0   14   20   0   
21   0   0   0   8   23   0   0   0   0   
16   11   0   0   0   0   0   24   0   25   
0   0   12   17   0   0   0   0   0   10   
0   0   0   2   13   3   0   0   15   5   
Room 2
0   1   0   0   0   0   0   0   0   0   
0   0   0   0   0   0   19   4   0   0   
0   0   0   0   0   0   0   0   0   0   
0   0   0   0   0   0   0   0   0   0   
0   0   0   0   0   0   0   0   0   0   
Room 3
0   0   0   0   0   0   0   0   0   0   
0   0   7   0   0   0   0   0   0   0   
0   0   0   0   9   0   0   0   0   0   
0   0   0   0   0   18   0   0   0   0   
0   0   0   0   0   0   0   0   0   0   
Room 1
6   0   0   22   0   0   0   14   20   0   
21   0   0   0   8   23   0   0   0   0   
16   11   0   0   0   0   0   0   0   25   
0   0   12   17   0   0   0   0   0   10   
0   0   0   2   13   3   0   0   15   0   
Room 2
0   1   0   0   0   0   0   0   0   0   
0   0   0   0   0   0   19   4   0   0   
0   0   0   0   0   0   0   0   0   0   
0   0   0   0   0   0   0   0   0   0   
0   0   0   0   0   0   0   0   0   0   
Room 3
0   0   0   0   0   0   0   0   0   0   
0   0   7   0   0   0   9   0   0   0   
0   0   0   0   0   0   0   0   0   0   
0   5   0   0   0   18   0   24   0   0   
0   0   0   0   0   0   0   0   0   0   
Room 1
6   0   0   22   0   0   0   14   20   0   
21   0   0   0   8   23   0   0   0   0   
16   11   0   0   0   0   0   0   0   25   
0   0   12   17   0   0   0   0   0   10   
0   0   0   2   13   3   0   0   15   0   
Room 2
0   1   0   0   0   0   0   0   0   0   
0   0   0   0   0   0   19   4   0   0   
0   0   0   0   0   0   0   0   0   0   
0   0   0   0   0   0   0   0   0   0   
0   0   0   0   0   0   0   0   0   0   
Room 3
0   0   0   0   0   0   0   0   0   0   
0   0   7   0   0   0   9   0   0   0   
0   0   0   0   0   0   0   0   24   0   
0   5   0   0   0   18   0   0   0   0   
0   0   0   0   0   0   0   0   0   0   
Room 1
0   0   0   0   0   23   0   0   0   10   
0   11   0   0   0   0   0   0   20   0   
0   0   0   0   0   0   0   0   15   0   
0   0   0   0   0   0   9   24   0   0   
16   0   0   7   0   0   14   0   0   5   
Room 2
6   0   17   2   0   0   0   4   25   0   
0   0   0   0   0   0   0   0   0   0   
0   1   22   0   0   18   0   0   0   0   
0   0   0   0   8   0   0   0   0   0   
0   0   0   0   0   13   0   0   0   0   
Room 3
0   0   0   0   0   0   0   0   0   0   
0   0   12   0   3   0   0   0   0   0   
0   0   0   0   0   0   19   0   0   0   
0   0   0   0   0   0   0   0   0   0   
0   21   0   0   0   0   0   0   0   0   
Room 1
0   0   0   0   0   23   0   0   0   10   
0   11   0   0   0   0   0   0   20   0   
0   0   0   0   0   0   0   0   15   0   
0   0   0   0   0   0   0   24   0   0   
16   0   0   9   13   0   14   0   0   5   
Room 2
6   0   17   2   0   0   0   4   25   0   
0   0   0   0   0   0   0   0   0   0   
0   1   22   0   0   18   0   0   0   0   
0   0   0   0   8   0   0   0   0   0   
0   0   7   0   0   0   0   0   0   0   
Room 3
0   0   0   0   0   0   0   0   0   0   
0   0   12   0   3   0   0   0   0   0   
0   0   0   0   0   0   19   0   0   0   
0   0   0   0   0   0   0   0   0   0   
0   21   0   0   0   0   0   0   0   0   
Room 1
0   0   0   0   0   23   0   0   0   10   
0   11   0   0   0   0   0   0   20   0   
0   0   0   0   0   0   0   0   15   0   
0   0   0   0   0   0   0   24   0   0   
16   0   0   9   13   0   14   0   0   5   
Room 2
6   0   17   2   0   0   0   4   25   0   
0   0   0   0   0   0   0   0   0   0   
0   1   22   0   0   18   0   0   0   0   
0   0   0   0   8   0   0   0   0   0   
0   0   7   0   0   0   0   0   0   0   
Room 3
0   0   0   0   0   0   0   0   0   0   
0   0   12   0   3   0   0   0   0   0   
0   0   0   0   0   0   19   0   0   0   
0   0   0   0   0   0   0   0   0   0   
0   21   0   0   0   0   0   0   0   0   
Room 1
0   0   0   0   0   23   0   0   0   10   
0   11   0   0   0   0   0   0   20   0   
0   0   0   0   0   0   0   0   15   0   
0   0   0   0   0   0   0   0   0   0   
16   0   0   9   13   0   14   24   0   5   
Room 2
6   0   17   2   0   0   0   4   25   0   
0   0   0   0   0   0   0   0   0   0   
0   1   22   0   0   18   0   0   0   0   
0   0   0   0   8   0   0   0   0   0   
0   0   7   0   0   0   0   0   0   0   
Room 3
0   0   0   0   0   0   0   0   0   0   
0   0   12   0   3   0   0   0   0   0   
0   0   0   0   0   0   19   0   0   0   
0   0   0   0   0   0   0   0   0   0   
0   21   0   0   0   0   0   0   0   0   
Room 1
0   0   0   0   0   23   0   0   0   10   
0   11   0   0   0   0   0   0   20   0   
0   0   0   0   0   0   0   0   15   0   
0   0   0   0   0   0   0   24   0   0   
16   0   0   0   13   0   14   0   0   5   
Room 2
6   0   17   2   0   0   0   4   25   0   
0   0   0   0   0   0   0   0   0   0   
0   1   22   0   0   18   0   0   0   0   
0   0   0   0   8   0   0   0   0   0   
0   0   7   0   0   0   0   0   0   0   
Room 3
0   0   0   0   0   0   0   0   0   0   
0   9   12   0   3   0   0   0   0   0   
0   0   0   0   0   0   19   0   0   0   
0   0   0   0   0   0   0   0   0   0   
0   21   0   0   0   0   0   0   0   0   
Room 1
0   0   0   0   0   23   0   0   0   10   
0   11   0   0   0   0   0   0   20   0   
0   0   0   0   0   0   0   0   15   0   
0   0   0   0   0   0   0   24   0   0   
16   0   0   9   13   0   14   0   0   5   
Room 2
6   0   17   2   0   0   0   4   25   0   
0   0   0   0   0   0   0   0   0   0   
0   1   22   0   0   18   0   0   0   0   
0   0   0   0   8   0   0   0   0   0   
0   0   7   0   0   0   0   0   0   0   
Room 3
0   0   0   0   0   0   0   0   0   0   
0   0   12   0   3   0   0   0   0   0   
0   0   0   0   0   0   19   0   0   0   
0   0   0   0   0   0   0   0   0   0   
0   21   0   0   0   0   0   0   0   0   
Room 1
0   0   0   0   0   23   0   0   0   10   
0   11   0   0   0   0   0   0   20   0   
0   0   0   0   0   0   0   0   15   0   
0   0   0   0   0   0   0   0   0   0   
16   0   0   9   13   0   14   24   0   5   
Room 2
6   0   17   2   0   0   0   4   25   0   
0   0   0   0   0   0   0   0   0   0   
0   1   22   0   0   18   0   0   0   0   
0   0   0   0   8   0   0   0   0   0   
0   0   7   0   0   0   0   0   0   0   
Room 3
0   0   0   0   0   0   0   0   0   0   
0   0   12   0   3   0   0   0   0   0   
0   0   0   0   0   0   19   0   0   0   
0   0   0   0   0   0   0   0   0   0   
0   21   0   0   0   0   0   0   0   0   
Room 1
0   0   0   0   0   23   0   0   0   10   
0   11   0   0   0   0   0   0   20   0   
0   0   0   0   0   0   0   0   15   0   
0   0   0   0   0   0   0   24   0   0   
16   0   0   9   13   0   14   0   0   5   
Room 2
6   0   17   2   0   0   0   4   25   0   
0   0   0   0   0   0   0   0   0   0   
0   1   22   0   0   18   0   0   0   0   
0   0   0   0   8   0   0   0   0   0   
0   0   7   0   0   0   0   0   0   0   
Room 3
0   0   0   0   0   0   0   0   0   0   
0   0   12   0   3   0   0   0   0   0   
0   0   0   0   0   0   19   0   0   0   
0   0   0   0   0   0   0   0   0   0   
0   21   0   0   0   0   0   0   0   0   
Room 1
0   0   0   0   0   23   0   0   0   10   
0   11   0   0   0   0   0   0   20   0   
0   0   0   0   0   0   0   0   15   0   
0   0   0   0   0   0   9   0   0   0   
16   0   0   0   0   0   14   24   0   5   
Room 2
6   0   17   2   0   0   0   4   25   0   
0   0   0   0   0   0   0   0   0   0   
0   1   22   21   0   18   0   0   0   0   
0   0   0   0   8   0   0   0   0   0   
0   0   7   0   0   0   0   0   0   0   
Room 3
13   0   0   0   0   0   0   0   0   0   
0   0   12   0   3   0   0   0   0   0   
0   0   0   0   0   0   19   0   0   0   
0   0   0   0   0   0   0   0   0   0   
0   0   0   0   0   0   0   0   0   0   
Room 1
0   0   0   0   0   23   0   0   0   10   
0   11   0   0   0   0   0   0   20   0   
0   0   0   0   0   0   0   0   0   0   
0   15   0   0   0   0   0   24   0   0   
16   0   0   9   13   0   14   0   0   5   
Room 2
0   0   17   2   0   0   0   4   25   0   
0   0   0   0   0   0   0   0   0   0   
0   1   22   0   0   18   0   0   0   0   
0   0   0   0   8   0   0   0   0   0   
0   0   7   0   0   0   0   0   0   0   
Room 3
0   0   0   0   0   0   0   0   0   0   
0   0   12   0   3   0   0   0   0   0   
0   0   0   0   0   0   19   0   0   0   
0   0   0   6   0   0   0   0   0   0   
0   21   0   0   0   0   0   0   0   0   
Room 1
11   0   0   17   8   0   24   0   10   0   
0   0   0   7   0   18   0   14   0   0   
21   0   0   0   23   0   0   4   0   0   
0   0   0   0   0   0   0   0   0   0   
0   0   2   0   0   0   19   0   0   0   
Room 2
0   0   12   0   0   3   0   0   0   0   
0   0   0   0   0   0   9   0   0   0   
0   0   0   0   0   0   0   0   25   0   
0   0   0   0   0   0   0   0   15   5   
16   6   0   0   0   0   0   0   0   0   
Room 3
0   0   0   0   0   0   0   0   0   0   
0   0   22   0   0   0   0   0   0   0   
0   0   0   0   0   0   0   0   0   20   
0   1   0   0   0   0   0   0   0   0   
0   0   0   0   13   0   0   0   0   0   
Room 1
11   0   0   17   8   0   24   0   10   0   
0   0   0   7   0   18   0   14   0   0   
21   0   0   0   23   0   0   4   0   0   
0   0   0   0   0   0   0   0   0   0   
0   0   2   0   0   0   19   0   0   0   
Room 2
0   0   12   0   0   3   0   0   0   0   
0   0   0   0   0   0   9   0   0   0   
0   0   0   0   0   0   0   0   25   0   
0   0   0   0   0   0   0   0   15   5   
16   6   0   0   0   0   0   0   0   0   
Room 3
0   0   22   0   0   0   0   0   0   0   
0   0   0   0   0   0   0   0   0   0   
0   0   0   0   0   0   0   0   0   20   
0   1   0   0   0   0   0   0   0   0   
0   0   0   0   13   0   0   0   0   0   
Room 1
11   0   0   17   8   0   24   0   10   0   
0   0   0   7   0   18   0   14   0   0   
21   0   0   0   23   0   0   4   0   0   
0   0   0   0   0   0   0   0   0   0   
0   0   2   0   0   0   19   0   0   0   
Room 2
0   0   12   0   0   3   0   0   0   0   
0   0   0   0   0   0   9   0   0   0   
0   0   0   0   0   0   0   0   25   0   
0   0   0   0   0   0   0   0   15   5   
16   6   0   0   0   0   0   0   0   0   
Room 3
0   0   22   0   0   0   0   0   0   0   
0   0   0   0   0   0   0   0   0   0   
0   0   0   0   0   0   0   0   0   20   
0   1   0   0   0   0   0   0   0   0   
0   0   0   0   13   0   0   0   0   0   
Room 1
11   0   0   17   8   0   24   0   10   0   
0   0   0   7   0   18   0   14   0   0   
21   0   0   0   23   0   0   4   0   0   
0   0   0   0   0   0   0   0   0   0   
0   0   2   0   0   0   19   0   0   0   
Room 2
0   0   12   0   0   3   0   0   0   0   
0   0   0   0   0   0   9   0   0   0   
0   0   0   0   0   0   0   0   25   0   
0   0   0   0   0   0   0   0   15   5   
16   6   0   0   0   0   0   0   0   0   
Room 3
0   0   22   0   0   0   0   0   0   0   
0   0   0   0   0   0   0   0   0   0   
0   0   0   0   0   0   0   0   0   20   
0   1   0   0   0   0   0   0   0   0   
0   0   0   0   13   0   0   0   0   0   
Room 1
11   0   0   17   8   0   24   0   10   0   
0   0   0   7   0   18   0   14   0   0   
21   0   0   0   23   0   0   4   0   0   
0   0   0   0   0   0   0   0   0   0   
0   0   2   0   0   0   19   0   0   0   
Room 2
0   0   12   0   0   3   0   0   0   0   
0   0   0   0   0   0   9   0   0   0   
0   0   0   0   0   0   0   0   25   0   
0   0   0   0   0   0   0   0   15   5   
16   6   0   0   0   0   0   0   0   0   
Room 3
0   0   22   0   0   0   0   0   0   0   
0   0   0   0   0   0   0   0   0   0   
0   0   0   0   0   0   0   0   0   20   
0   1   0   0   0   0   0   0   0   0   
0   0   0   0   13   0   0   0   0   0   
Room 1
11   0   0   17   8   0   24   0   10   0   
0   0   0   7   0   18   0   14   0   0   
21   0   0   0   23   0   0   4   0   0   
0   0   0   0   0   0   0   0   0   0   
0   0   2   0   0   0   19   0   0   0   
Room 2
0   0   12   0   0   3   0   0   0   0   
0   0   0   0   0   0   9   0   0   0   
0   0   0   0   0   0   0   0   25   0   
0   0   0   0   0   0   0   0   15   5   
16   6   0   0   0   0   0   0   0   0   
Room 3
0   0   22   0   0   0   0   0   0   0   
0   0   0   0   0   0   0   0   0   0   
0   0   0   0   0   0   0   0   0   20   
0   1   0   0   0   0   0   0   0   0   
0   0   0   0   13   0   0   0   0   0   
Room 1
11   0   0   17   8   0   24   0   10   0   
0   0   0   7   0   18   0   14   0   0   
21   0   0   0   23   0   0   4   0   0   
0   0   0   0   0   0   0   0   0   0   
0   0   2   0   0   0   19   0   0   0   
Room 2
0   0   12   0   0   3   0   0   0   0   
0   0   0   0   0   0   9   0   0   0   
0   0   0   0   0   0   0   0   25   0   
0   0   0   0   0   0   0   0   15   5   
16   6   0   0   0   0   0   0   0   0   
Room 3
0   0   22   0   0   0   0   0   0   0   
0   0   0   0   0   0   0   0   0   0   
0   0   0   0   0   0   0   0   0   20   
0   1   0   0   0   0   0   0   0   0   
0   0   0   0   13   0   0   0   0   0   
Room 1
11   0   0   17   8   0   24   0   10   0   
0   0   0   7   0   18   0   14   0   0   
21   0   0   0   23   0   0   4   0   0   
0   0   0   0   0   0   0   0   0   0   
0   0   2   0   0   0   19   0   0   0   
Room 2
0   6   12   0   0   3   0   0   0   0   
0   0   0   0   0   0   9   0   0   0   
0   0   0   0   0   0   0   0   25   0   
0   0   0   0   0   0   0   0   15   5   
16   0   0   0   0   0   0   0   0   0   
Room 3
0   0   22   0   0   0   0   0   0   0   
0   0   0   0   0   0   0   0   0   0   
0   0   0   0   0   0   0   0   0   20   
0   1   0   0   0   0   0   0   0   0   
0   0   0   0   13   0   0   0   0   0   
Room 1
11   0   0   17   8   0   24   0   10   0   
0   0   0   7   0   18   0   14   0   0   
21   0   0   0   23   0   0   4   0   0   
0   0   0   0   0   0   0   0   0   0   
0   0   2   0   0   0   19   0   0   0   
Room 2
0   0   12   0   0   3   0   0   0   0   
0   0   0   0   0   0   9   0   0   0   
0   0   0   0   0   0   0   0   25   0   
0   0   0   0   0   0   0   0   15   5   
16   6   0   0   0   0   0   0   0   0   
Room 3
0   0   22   0   0   0   0   0   0   0   
0   0   0   0   0   0   0   0   0   0   
0   0   0   0   0   0   0   0   0   20   
0   1   0   0   0   0   0   0   0   0   
0   0   0   0   13   0   0   0   0   0   
Room 1
11   0   0   17   8   0   24   0   10   0   
0   0   0   7   0   18   0   14   0   0   
21   0   0   0   0   0   0   4   0   0   
0   0   0   0   0   0   0   0   0   0   
0   0   2   0   0   0   19   0   0   0   
Room 2
0   0   12   0   0   3   0   0   0   0   
0   0   0   0   0   0   9   0   0   0   
0   0   0   0   0   0   0   0   25   0   
0   0   0   0   0   0   0   0   15   5   
16   6   0   0   0   0   0   0   0   0   
Room 3
0   0   22   0   0   0   0   0   0   0   
0   0   0   0   0   0   0   0   0   0   
0   0   0   0   0   0   0   0   0   20   
0   1   0   0   0   0   0   23   0   0   
0   0   0   0   13   0   0   0   0   0   
Room 1
0   11   0   0   8   0   0   0   10   5   
0   0   0   0   0   0   0   24   15   0   
0   6   0   22   0   23   0   9   0   0   
0   21   17   0   0   18   0   0   0   0   
0   0   0   0   13   0   0   0   0   0   
Room 2
0   0   0   0   0   0   0   0   25   0   
0   1   7   2   0   0   0   0   0   0   
16   0   0   0   0   0   0   0   20   0   
0   0   0   0   3   0   4   0   0   0   
0   0   12   0   0   0   0   0   0   0   
Room 3
0   0   0   0   0   0   14   0   0   0   
0   0   0   0   0   0   0   0   0   0   
0   0   0   0   0   0   19   0   0   0   
0   0   0   0   0   0   0   0   0   0   
0   0   0   0   0   0   0   0   0   0   
Room 1
0   11   0   0   0   0   0   0   10   5   
0   0   0   0   0   0   0   24   15   0   
0   6   0   22   0   23   0   9   0   0   
0   21   17   0   0   18   0   0   0   0   
0   0   0   0   13   0   0   0   0   0   
Room 2
0   0   0   0   0   0   0   0   25   0   
0   1   7   2   0   0   0   0   0   0   
16   0   0   0   0   0   0   0   20   0   
0   0   0   0   3   0   4   0   0   0   
0   0   12   0   0   0   0   0   0   0   
Room 3
0   0   0   0   0   0   14   0   0   0   
0   0   0   0   0   0   0   0   0   0   
0   0   0   0   0   0   19   0   0   0   
0   0   0   0   0   8   0   0   0   0   
0   0   0   0   0   0   0   0   0   0   
Room 1
0   11   0   0   0   0   0   0   10   5   
0   0   0   0   0   0   0   24   15   0   
0   6   0   22   0   23   0   9   0   0   
0   21   17   0   0   18   0   0   0   0   
0   0   0   0   13   0   0   0   0   0   
Room 2
0   0   0   0   0   0   0   0   25   0   
0   1   7   2   0   0   0   0   0   0   
16   0   0   0   0   0   0   0   20   0   
0   0   0   0   3   0   4   0   0   0   
0   0   12   0   0   0   0   0   0   0   
Room 3
0   0   0   0   0   0   14   0   0   0   
0   0   0   0   0   0   0   0   0   0   
0   0   0   0   0   0   19   0   0   0   
0   0   0   0   0   8   0   0   0   0   
0   0   0   0   0   0   0   0   0   0   
Room 1
0   11   0   0   0   0   0   0   10   5   
0   0   0   0   0   0   0   24   15   0   
0   6   0   22   0   23   0   9   0   0   
0   21   17   0   0   18   0   0   0   0   
0   0   0   0   13   0   0   0   0   0   
Room 2
0   0   0   0   0   0   0   0   25   0   
0   1   7   2   0   0   0   0   0   0   
16   0   0   0   0   0   0   0   20   0   
0   0   0   0   3   0   4   0   0   0   
0   0   12   0   0   0   0   0   0   0   
Room 3
0   0   0   0   0   0   14   0   0   0   
0   0   0   0   0   0   0   0   0   0   
0   0   0   0   0   0   19   0   0   0   
0   0   0   0   0   8   0   0   0   0   
0   0   0   0   0   0   0   0   0   0   
Room 1
0   11   0   0   0   0   0   0   10   5   
0   0   0   0   0   0   0   24   15   0   
0   6   0   22   0   23   0   9   0   0   
0   21   17   0   0   18   0   0   0   0   
0   0   0   0   13   0   0   0   0   0   
Room 2
0   0   0   0   0   0   0   0   25   0   
0   1   7   2   0   0   0   0   0   0   
16   0   0   0   0   0   0   0   20   0   
0   0   0   0   3   0   4   0   0   0   
0   0   12   0   0   0   0   0   0   0   
Room 3
0   0   0   0   0   0   14   0   0   0   
0   0   0   0   0   0   0   0   0   0   
0   0   0   0   0   0   19   0   0   0   
0   0   0   0   0   8   0   0   0   0   
0   0   0   0   0   0   0   0   0   0   
Room 1
0   11   0   0   0   0   0   0   10   5   
0   0   0   0   0   0   0   24   15   0   
0   6   0   22   0   23   0   9   0   0   
0   21   17   0   0   18   0   0   0   0   
0   0   0   0   13   0   0   0   0   0   
Room 2
0   0   0   0   0   0   0   0   25   0   
0   1   7   2   0   0   0   0   0   0   
16   0   0   0   0   0   0   0   20   0   
0   0   0   0   3   0   4   0   0   0   
0   0   12   0   0   0   0   0   0   0   
Room 3
0   0   0   0   0   0   14   0   0   0   
0   0   0   0   0   0   0   0   0   0   
0   0   0   0   0   0   19   0   0   0   
0   0   0   0   0   8   0   0   0   0   
0   0   0   0   0   0   0   0   0   0   
Room 1
0   11   0   0   0   0   0   0   10   5   
0   0   0   0   0   0   0   24   15   0   
0   6   0   22   0   23   0   9   0   0   
0   21   17   0   0   18   0   0   0   0   
0   0   0   0   13   0   0   0   0   0   
Room 2
0   0   0   0   0   0   0   0   25   0   
0   1   7   2   0   0   0   0   0   0   
16   0   0   0   0   0   0   0   20   0   
0   0   0   0   3   0   4   0   0   0   
0   0   12   0   0   0   0   0   0   0   
Room 3
0   0   0   0   0   0   14   0   0   0   
0   0   0   0   0   0   0   0   0   0   
0   0   0   0   0   0   19   0   0   0   
0   0   0   0   0   8   0   0   0   0   
0   0   0   0   0   0   0   0   0   0   
Room 1
0   11   0   0   0   0   0   0   10   5   
0   0   0   0   0   0   0   24   15   0   
0   6   0   22   0   23   0   9   0   0   
18   21   17   0   0   0   0   0   0   0   
0   0   0   0   13   0   0   0   0   0   
Room 2
0   0   0   0   0   0   0   0   25   0   
0   1   7   2   0   0   0   0   0   0   
16   0   0   0   0   0   0   0   20   0   
0   0   0   0   3   0   4   0   0   0   
0   0   12   0   0   0   0   0   0   0   
Room 3
0   0   0   0   0   0   14   0   0   0   
0   0   0   0   0   0   0   0   0   0   
0   0   0   0   0   0   19   0   0   0   
0   0   0   0   0   8   0   0   0   0   
0   0   0   0   0   0   0   0   0   0   
Room 1
0   11   0   0   0   0   0   0   10   5   
0   0   0   0   0   0   0   24   15   0   
0   6   0   22   0   23   0   9   0   1   
0   21   17   0   0   18   0   0   0   0   
0   0   0   0   13   0   0   0   0   0   
Room 2
0   0   0   0   0   0   0   0   25   0   
0   0   7   2   0   0   0   0   0   0   
16   0   0   0   0   0   0   0   20   0   
0   0   0   0   3   0   4   0   0   0   
0   0   12   0   0   0   0   0   0   0   
Room 3
0   0   0   0   0   0   14   0   0   0   
0   0   0   0   0   0   0   0   0   0   
0   0   0   0   0   0   19   0   0   0   
0   0   0   0   0   8   0   0   0   0   
0   0   0   0   0   0   0   0   0   0   
Room 1
0   11   0   0   0   0   0   0   10   5   
0   0   0   0   0   0   0   24   15   0   
0   6   0   22   0   23   0   0   0   0   
0   21   17   0   0   18   0   0   0   0   
9   0   0   0   13   0   0   0   0   0   
Room 2
0   0   0   0   0   0   0   0   25   0   
0   1   7   2   0   0   0   0   0   0   
16   0   0   0   0   0   0   0   20   0   
0   0   0   0   3   0   4   0   0   0   
0   0   12   0   0   0   0   0   0   0   
Room 3
0   0   0   0   0   0   14   0   0   0   
0   0   0   0   0   0   0   0   0   0   
0   0   0   0   0   0   19   0   0   0   
0   0   0   0   0   8   0   0   0   0   
0   0   0   0   0   0   0   0   0   0   
Room 1
11   1   0   17   0   0   0   0   0   5   
0   0   0   0   0   3   19   0   25   20   
16   0   0   22   0   0   0   0   0   0   
0   0   0   0   0   13   0   0   0   0   
6   0   2   0   0   0   0   0   0   0   
Room 2
0   0   0   0   0   0   14   0   0   0   
0   21   0   0   0   0   0   0   0   0   
0   0   7   0   0   23   24   0   10   15   
0   0   0   0   8   0   4   0   0   0   
0   0   0   0   0   0   0   0   0   0   
Room 3
0   0   0   0   0   0   0   9   0   0   
0   0   0   0   0   0   0   0   0   0   
0   0   0   0   18   0   0   0   0   0   
0   0   0   0   0   0   0   0   0   0   
0   0   0   12   0   0   0   0   0   0   
Room 1
11   1   0   17   0   0   0   14   0   5   
0   0   0   0   0   3   19   0   25   20   
16   0   0   22   0   0   0   0   0   0   
0   0   0   0   0   0   0   0   0   0   
6   0   2   0   0   0   0   0   0   0   
Room 2
0   0   0   0   0   0   0   0   0   0   
0   21   0   0   0   0   0   0   0   0   
0   0   7   0   0   23   24   0   10   15   
0   0   0   0   8   0   4   0   0   0   
0   0   0   0   0   0   0   0   0   0   
Room 3
0   0   0   0   0   0   0   9   0   0   
0   0   0   0   0   0   0   0   0   0   
0   0   0   0   18   13   0   0   0   0   
0   0   0   0   0   0   0   0   0   0   
0   0   0   12   0   0   0   0   0   0   
Room 1
11   1   0   17   0   0   0   0   0   5   
0   0   0   0   0   3   19   0   25   0   
16   0   0   22   0   0   0   0   0   0   
0   0   0   0   13   0   0   0   0   0   
6   0   2   0   0   0   0   0   0   0   
Room 2
0   0   0   0   0   0   14   0   0   0   
0   21   0   0   0   0   0   0   0   0   
0   0   7   0   0   23   24   0   10   15   
0   0   0   0   8   0   4   0   0   0   
0   0   0   0   0   0   0   0   0   0   
Room 3
0   0   0   0   0   0   0   9   0   0   
0   0   0   0   0   0   0   0   0   0   
0   0   0   0   18   0   0   0   0   0   
0   0   0   0   0   0   0   0   0   20   
0   0   0   12   0   0   0   0   0   0   
Room 1
11   1   0   17   0   0   0   14   0   5   
0   0   0   0   0   3   19   0   25   20   
16   0   0   22   0   0   0   0   0   0   
0   0   0   0   0   0   0   0   0   0   
6   0   2   0   0   0   0   0   0   0   
Room 2
0   0   0   0   0   0   0   0   0   0   
0   21   0   0   0   0   0   0   0   0   
0   0   7   0   0   23   24   0   10   15   
0   0   0   0   8   0   4   0   0   0   
0   0   0   0   0   0   0   0   0   0   
Room 3
0   0   0   0   0   0   0   9   0   0   
0   0   0   0   0   0   0   0   0   0   
0   0   0   0   18   13   0   0   0   0   
0   0   0   0   0   0   0   0   0   0   
0   0   0   12   0   0   0   0   0   0   
Room 1
11   1   0   17   0   0   0   0   0   5   
0   0   0   0   0   3   19   0   25   20   
16   0   0   22   0   0   0   0   0   0   
0   0   0   0   13   0   0   0   0   0   
6   0   2   0   0   0   0   0   0   0   
Room 2
0   0   0   0   0   0   14   0   0   0   
0   21   0   0   0   0   0   0   0   0   
0   0   7   0   0   23   24   0   10   15   
0   0   0   0   8   0   4   0   0   0   
0   0   0   0   0   0   0   0   0   0   
Room 3
0   0   0   0   0   0   0   9   0   0   
0   0   0   0   0   0   0   0   0   0   
0   0   0   0   18   0   0   0   0   0   
0   0   0   0   0   0   0   0   0   0   
0   0   0   12   0   0   0   0   0   0   
Room 1
11   1   0   17   0   0   0   0   0   5   
0   0   0   0   0   3   19   0   0   0   
16   0   0   22   0   0   0   0   0   0   
0   0   0   0   13   0   0   0   0   0   
6   0   2   0   0   0   0   0   0   0   
Room 2
0   0   0   0   0   0   14   0   0   0   
0   21   0   0   0   0   0   0   0   0   
0   0   7   0   0   23   24   0   10   15   
0   0   0   0   8   0   4   0   0   0   
0   0   0   0   0   0   0   0   0   0   
Room 3
0   0   0   0   0   0   0   9   0   0   
0   0   0   0   0   0   0   0   0   0   
0   0   0   0   18   0   0   0   25   0   
0   0   0   0   0   0   0   0   0   20   
0   0   0   12   0   0   0   0   0   0   
Room 1
11   1   0   17   0   13   0   0   0   5   
0   0   0   0   0   3   19   0   25   20   
16   0   0   22   0   0   0   0   0   0   
0   0   0   0   0   0   0   0   0   0   
6   0   2   0   0   0   0   0   0   0   
Room 2
0   0   0   0   0   0   14   0   0   0   
0   21   0   0   0   0   0   0   0   0   
0   0   7   0   0   23   24   0   10   15   
0   0   0   0   8   0   4   0   0   0   
0   0   0   0   0   9   0   0   0   0   
Room 3
0   0   0   0   0   0   0   0   0   0   
0   0   0   0   0   0   0   0   0   0   
0   0   0   0   18   0   0   0   0   0   
0   0   0   0   0   0   0   0   0   0   
0   0   0   12   0   0   0   0   0   0   
Room 1
11   1   0   17   0   0   0   0   0   5   
0   0   0   0   0   3   19   0   25   20   
16   0   0   22   0   0   0   0   0   0   
0   0   0   0   0   13   0   0   0   0   
6   0   2   0   0   0   0   0   0   0   
Room 2
0   0   0   0   0   0   14   0   0   0   
0   21   0   0   0   0   0   0   0   0   
0   0   7   0   0   23   24   0   10   15   
0   0   0   0   8   0   4   0   0   0   
0   0   0   0   0   9   0   0   0   0   
Room 3
0   0   0   0   0   0   0   0   0   0   
0   0   0   0   0   0   0   0   0   0   
0   0   0   0   18   0   0   0   0   0   
0   0   0   0   0   0   0   0   0   0   
0   0   0   12   0   0   0   0   0   0   
Room 1
11   1   0   17   0   13   0   0   0   5   
0   3   0   0   0   0   0   0   25   20   
16   0   0   22   0   0   0   0   0   0   
0   0   0   0   0   0   0   0   0   0   
6   0   2   0   0   0   0   0   0   0   
Room 2
0   0   0   0   0   0   14   0   0   0   
0   21   0   0   0   0   0   0   0   0   
0   0   7   0   0   23   24   0   10   15   
0   0   0   0   8   0   4   0   0   0   
0   0   0   0   0   0   0   0   0   0   
Room 3
0   0   0   0   0   0   0   9   0   0   
0   0   0   0   0   0   0   0   0   0   
0   0   0   0   18   0   19   0   0   0   
0   0   0   0   0   0   0   0   0   0   
0   0   0   12   0   0   0   0   0   0   
Room 1
11   1   9   17   0   0   0   14   0   5   
0   0   0   0   0   3   19   0   25   20   
16   0   0   22   0   0   0   0   0   0   
0   0   0   0   0   0   0   0   0   0   
6   0   2   0   0   0   0   0   0   0   
Room 2
0   0   0   0   0   0   0   0   0   0   
0   21   0   0   0   0   0   0   0   0   
0   0   7   8   0   23   24   0   10   15   
0   0   0   0   0   0   4   0   0   0   
0   0   0   0   0   0   0   0   0   0   
Room 3
0   0   0   0   0   0   0   0   0   0   
0   0   0   0   0   0   0   0   0   0   
0   0   0   0   18   13   0   0   0   0   
0   0   0   0   0   0   0   0   0   0   
0   0   0   12   0   0   0   0   0   0   
